Set parameter TokenServer to value "hpc-licenses.hpcc.usc.edu"
Set parameter TimeLimit to value 3600
Gurobi Optimizer version 9.5.1 build v9.5.1rc2 (linux64)
Thread count: 20 physical cores, 20 logical processors, using up to 20 threads
Optimize a model with 6007 rows, 4529 columns and 24534 nonzeros
Model fingerprint: 0x778986fe
Variable types: 4506 continuous, 23 integer (23 binary)
Coefficient statistics:
  Matrix range     [1e+00, 1e+00]
  Objective range  [6e-03, 1e+00]
  Bounds range     [1e+00, 1e+00]
  RHS range        [1e+00, 1e+02]
Found heuristic solution: objective 279.4341235
Presolve removed 1520 rows and 1515 columns
Presolve time: 0.04s
Presolved: 4487 rows, 3014 columns, 21975 nonzeros
Variable types: 2994 continuous, 20 integer (20 binary)

Root relaxation: objective 2.886848e+02, 3712 iterations, 0.18 seconds (0.25 work units)

    Nodes    |    Current Node    |     Objective Bounds      |     Work
 Expl Unexpl |  Obj  Depth IntInf | Incumbent    BestBd   Gap | It/Node Time

     0     0  288.68481    0    2  279.43412  288.68481  3.31%     -    0s
     0     0  288.61755    0    2  279.43412  288.61755  3.29%     -    0s
H    0     0                     280.1019604  288.61755  3.04%     -    0s
     0     0  288.27085    0    4  280.10196  288.27085  2.92%     -    0s
     0     0  288.19025    0    2  280.10196  288.19025  2.89%     -    0s
H    0     0                     287.4229757  288.17901  0.26%     -    0s
     0     0  288.17901    0    4  287.42298  288.17901  0.26%     -    0s
     0     0  288.17901    0    2  287.42298  288.17901  0.26%     -    0s
     0     0  288.17901    0    3  287.42298  288.17901  0.26%     -    1s
     0     0  288.14742    0    3  287.42298  288.14742  0.25%     -    1s
     0     0  287.86264    0    2  287.42298  287.86264  0.15%     -    1s
     0     0  287.86264    0    2  287.42298  287.86264  0.15%     -    1s
     0     2  287.86264    0    2  287.42298  287.86264  0.15%     -    2s

Cutting planes:
  Gomory: 4
  MIR: 703
  Flow cover: 1
  RLT: 7

Explored 15 nodes (7265 simplex iterations) in 2.90 seconds (1.41 work units)
Thread count was 20 (of 20 available processors)

Solution count 3: 287.423 280.102 279.434 

Optimal solution found (tolerance 1.00e-04)
Best objective 2.874229756777e+02, best bound 2.874229756777e+02, gap 0.0000%



#########node  1
V1.7
#########node  2
0.12337662337662338,0.8766233766233767
#########node  3
1.0,0.0


Total Solving Time 3.222919464111328
obj value 287.4229756777071
Policy Regret train (Sum) 2.0340319405192426
Best Treatment Found train (%) 82.8
treatment classification acc train (%) 47.8
Policy Regret test (Sum) 23.056351074388168
Best Treatment Found test (%) 86.09
treatment classification acc test (%) 50.43
